letting numberLocations be  29
letting costs be function (
(0,0) --> 0,
(0,1) --> 63,
(0,2) --> 56,
(0,3) --> 42,
(0,4) --> 55,
(0,5) --> 64,
(0,6) --> 56,
(0,7) --> 58,
(0,8) --> 39,
(0,9) --> 45,
(0,10) --> 33,
(0,11) --> 37,
(0,12) --> 38,
(0,13) --> 46,
(0,14) --> 41,
(0,15) --> 37,
(0,16) --> 43,
(0,17) --> 49,
(0,18) --> 9,
(0,19) --> 16,
(0,20) --> 19,
(0,21) --> 23,
(0,22) --> 26,
(0,23) --> 11,
(0,24) --> 64,
(0,25) --> 64,
(0,26) --> 47,
(0,27) --> 69,
(0,28) --> 60,
(0,29) --> 59,
(1,0) --> 63,
(1,1) --> 0,
(1,2) --> 24,
(1,3) --> 21,
(1,4) --> 12,
(1,5) --> 13,
(1,6) --> 8,
(1,7) --> 117,
(1,8) --> 102,
(1,9) --> 108,
(1,10) --> 95,
(1,11) --> 98,
(1,12) --> 100,
(1,13) --> 106,
(1,14) --> 103,
(1,15) --> 97,
(1,16) --> 102,
(1,17) --> 111,
(1,18) --> 72,
(1,19) --> 47,
(1,20) --> 44,
(1,21) --> 78,
(1,22) --> 39,
(1,23) --> 74,
(1,24) --> 8,
(1,25) --> 13,
(1,26) --> 32,
(1,27) --> 26,
(1,28) --> 44,
(1,29) --> 15,
(2,0) --> 56,
(2,1) --> 24,
(2,2) --> 0,
(2,3) --> 21,
(2,4) --> 14,
(2,5) --> 13,
(2,6) --> 25,
(2,7) --> 114,
(2,8) --> 94,
(2,9) --> 101,
(2,10) --> 89,
(2,11) --> 93,
(2,12) --> 94,
(2,13) --> 102,
(2,14) --> 95,
(2,15) --> 93,
(2,16) --> 99,
(2,17) --> 104,
(2,18) --> 65,
(2,19) --> 43,
(2,20) --> 38,
(2,21) --> 65,
(2,22) --> 30,
(2,23) --> 67,
(2,24) --> 31,
(2,25) --> 36,
(2,26) --> 46,
(2,27) --> 49,
(2,28) --> 62,
(2,29) --> 36,
(3,0) --> 42,
(3,1) --> 21,
(3,2) --> 21,
(3,3) --> 0,
(3,4) --> 13,
(3,5) --> 23,
(3,6) --> 15,
(3,7) --> 98,
(3,8) --> 82,
(3,9) --> 87,
(3,10) --> 75,
(3,11) --> 78,
(3,12) --> 80,
(3,13) --> 86,
(3,14) --> 83,
(3,15) --> 77,
(3,16) --> 83,
(3,17) --> 91,
(3,18) --> 52,
(3,19) --> 27,
(3,20) --> 23,
(3,21) --> 57,
(3,22) --> 18,
(3,23) --> 53,
(3,24) --> 24,
(3,25) --> 26,
(3,26) --> 26,
(3,27) --> 36,
(3,28) --> 43,
(3,29) --> 23,
(4,0) --> 55,
(4,1) --> 12,
(4,2) --> 14,
(4,3) --> 13,
(4,4) --> 0,
(4,5) --> 10,
(4,6) --> 12,
(4,7) --> 111,
(4,8) --> 94,
(4,9) --> 100,
(4,10) --> 88,
(4,11) --> 91,
(4,12) --> 92,
(4,13) --> 99,
(4,14) --> 95,
(4,15) --> 90,
(4,16) --> 96,
(4,17) --> 103,
(4,18) --> 64,
(4,19) --> 40,
(4,20) --> 36,
(4,21) --> 68,
(4,22) --> 30,
(4,23) --> 66,
(4,24) --> 18,
(4,25) --> 23,
(4,26) --> 34,
(4,27) --> 36,
(4,28) --> 49,
(4,29) --> 22,
(5,0) --> 64,
(5,1) --> 13,
(5,2) --> 13,
(5,3) --> 23,
(5,4) --> 10,
(5,5) --> 0,
(5,6) --> 18,
(5,7) --> 121,
(5,8) --> 103,
(5,9) --> 109,
(5,10) --> 97,
(5,11) --> 101,
(5,12) --> 102,
(5,13) --> 109,
(5,14) --> 104,
(5,15) --> 100,
(5,16) --> 106,
(5,17) --> 113,
(5,18) --> 73,
(5,19) --> 49,
(5,20) --> 45,
(5,21) --> 76,
(5,22) --> 38,
(5,23) --> 75,
(5,24) --> 21,
(5,25) --> 27,
(5,26) --> 43,
(5,27) --> 40,
(5,28) --> 57,
(5,29) --> 28,
(6,0) --> 56,
(6,1) --> 8,
(6,2) --> 25,
(6,3) --> 15,
(6,4) --> 12,
(6,5) --> 18,
(6,6) --> 0,
(6,7) --> 110,
(6,8) --> 95,
(6,9) --> 100,
(6,10) --> 87,
(6,11) --> 91,
(6,12) --> 92,
(6,13) --> 98,
(6,14) --> 96,
(6,15) --> 89,
(6,16) --> 94,
(6,17) --> 103,
(6,18) --> 65,
(6,19) --> 40,
(6,20) --> 37,
(6,21) --> 72,
(6,22) --> 33,
(6,23) --> 67,
(6,24) --> 9,
(6,25) --> 12,
(6,26) --> 25,
(6,27) --> 24,
(6,28) --> 38,
(6,29) --> 10,
(7,0) --> 58,
(7,1) --> 117,
(7,2) --> 114,
(7,3) --> 98,
(7,4) --> 111,
(7,5) --> 121,
(7,6) --> 110,
(7,7) --> 0,
(7,8) --> 27,
(7,9) --> 21,
(7,10) --> 25,
(7,11) --> 23,
(7,12) --> 22,
(7,13) --> 12,
(7,14) --> 29,
(7,15) --> 21,
(7,16) --> 15,
(7,17) --> 17,
(7,18) --> 49,
(7,19) --> 72,
(7,20) --> 76,
(7,21) --> 60,
(7,22) --> 84,
(7,23) --> 48,
(7,24) --> 116,
(7,25) --> 115,
(7,26) --> 93,
(7,27) --> 115,
(7,28) --> 98,
(7,29) --> 110,
(8,0) --> 39,
(8,1) --> 102,
(8,2) --> 94,
(8,3) --> 82,
(8,4) --> 94,
(8,5) --> 103,
(8,6) --> 95,
(8,7) --> 27,
(8,8) --> 0,
(8,9) --> 7,
(8,10) --> 11,
(8,11) --> 9,
(8,12) --> 8,
(8,13) --> 20,
(8,14) --> 3,
(8,15) --> 17,
(8,16) --> 20,
(8,17) --> 11,
(8,18) --> 30,
(8,19) --> 55,
(8,20) --> 58,
(8,21) --> 34,
(8,22) --> 65,
(8,23) --> 28,
(8,24) --> 103,
(8,25) --> 103,
(8,26) --> 83,
(8,27) --> 106,
(8,28) --> 92,
(8,29) --> 97,
(9,0) --> 45,
(9,1) --> 108,
(9,2) --> 101,
(9,3) --> 87,
(9,4) --> 100,
(9,5) --> 109,
(9,6) --> 100,
(9,7) --> 21,
(9,8) --> 7,
(9,9) --> 0,
(9,10) --> 13,
(9,11) --> 10,
(9,12) --> 8,
(9,13) --> 15,
(9,14) --> 9,
(9,15) --> 16,
(9,16) --> 17,
(9,17) --> 4,
(9,18) --> 36,
(9,19) --> 61,
(9,20) --> 64,
(9,21) --> 41,
(9,22) --> 71,
(9,23) --> 34,
(9,24) --> 108,
(9,25) --> 108,
(9,26) --> 87,
(9,27) --> 110,
(9,28) --> 96,
(9,29) --> 102,
(10,0) --> 33,
(10,1) --> 95,
(10,2) --> 89,
(10,3) --> 75,
(10,4) --> 88,
(10,5) --> 97,
(10,6) --> 87,
(10,7) --> 25,
(10,8) --> 11,
(10,9) --> 13,
(10,10) --> 0,
(10,11) --> 4,
(10,12) --> 5,
(10,13) --> 14,
(10,14) --> 14,
(10,15) --> 7,
(10,16) --> 13,
(10,17) --> 16,
(10,18) --> 24,
(10,19) --> 48,
(10,20) --> 52,
(10,21) --> 35,
(10,22) --> 60,
(10,23) --> 23,
(10,24) --> 95,
(10,25) --> 94,
(10,26) --> 74,
(10,27) --> 97,
(10,28) --> 82,
(10,29) --> 89,
(11,0) --> 37,
(11,1) --> 98,
(11,2) --> 93,
(11,3) --> 78,
(11,4) --> 91,
(11,5) --> 101,
(11,6) --> 91,
(11,7) --> 23,
(11,8) --> 9,
(11,9) --> 10,
(11,10) --> 4,
(11,11) --> 0,
(11,12) --> 1,
(11,13) --> 13,
(11,14) --> 12,
(11,15) --> 8,
(11,16) --> 12,
(11,17) --> 13,
(11,18) --> 27,
(11,19) --> 52,
(11,20) --> 56,
(11,21) --> 37,
(11,22) --> 63,
(11,23) --> 26,
(11,24) --> 98,
(11,25) --> 98,
(11,26) --> 77,
(11,27) --> 100,
(11,28) --> 86,
(11,29) --> 93,
(12,0) --> 38,
(12,1) --> 100,
(12,2) --> 94,
(12,3) --> 80,
(12,4) --> 92,
(12,5) --> 102,
(12,6) --> 92,
(12,7) --> 22,
(12,8) --> 8,
(12,9) --> 8,
(12,10) --> 5,
(12,11) --> 1,
(12,12) --> 0,
(12,13) --> 13,
(12,14) --> 11,
(12,15) --> 9,
(12,16) --> 13,
(12,17) --> 11,
(12,18) --> 28,
(12,19) --> 53,
(12,20) --> 57,
(12,21) --> 37,
(12,22) --> 64,
(12,23) --> 27,
(12,24) --> 100,
(12,25) --> 99,
(12,26) --> 79,
(12,27) --> 102,
(12,28) --> 87,
(12,29) --> 94,
(13,0) --> 46,
(13,1) --> 106,
(13,2) --> 102,
(13,3) --> 86,
(13,4) --> 99,
(13,5) --> 109,
(13,6) --> 98,
(13,7) --> 12,
(13,8) --> 20,
(13,9) --> 15,
(13,10) --> 14,
(13,11) --> 13,
(13,12) --> 13,
(13,13) --> 0,
(13,14) --> 22,
(13,15) --> 9,
(13,16) --> 4,
(13,17) --> 14,
(13,18) --> 37,
(13,19) --> 60,
(13,20) --> 64,
(13,21) --> 49,
(13,22) --> 72,
(13,23) --> 36,
(13,24) --> 105,
(13,25) --> 104,
(13,26) --> 81,
(13,27) --> 104,
(13,28) --> 87,
(13,29) --> 98,
(14,0) --> 41,
(14,1) --> 103,
(14,2) --> 95,
(14,3) --> 83,
(14,4) --> 95,
(14,5) --> 104,
(14,6) --> 96,
(14,7) --> 29,
(14,8) --> 3,
(14,9) --> 9,
(14,10) --> 14,
(14,11) --> 12,
(14,12) --> 11,
(14,13) --> 22,
(14,14) --> 0,
(14,15) --> 20,
(14,16) --> 23,
(14,17) --> 13,
(14,18) --> 31,
(14,19) --> 56,
(14,20) --> 60,
(14,21) --> 33,
(14,22) --> 66,
(14,23) --> 30,
(14,24) --> 104,
(14,25) --> 104,
(14,26) --> 85,
(14,27) --> 108,
(14,28) --> 95,
(14,29) --> 99,
(15,0) --> 37,
(15,1) --> 97,
(15,2) --> 93,
(15,3) --> 77,
(15,4) --> 90,
(15,5) --> 100,
(15,6) --> 89,
(15,7) --> 21,
(15,8) --> 17,
(15,9) --> 16,
(15,10) --> 7,
(15,11) --> 8,
(15,12) --> 9,
(15,13) --> 9,
(15,14) --> 20,
(15,15) --> 0,
(15,16) --> 6,
(15,17) --> 17,
(15,18) --> 28,
(15,19) --> 51,
(15,20) --> 55,
(15,21) --> 42,
(15,22) --> 63,
(15,23) --> 28,
(15,24) --> 96,
(15,25) --> 95,
(15,26) --> 74,
(15,27) --> 97,
(15,28) --> 81,
(15,29) --> 90,
(16,0) --> 43,
(16,1) --> 102,
(16,2) --> 99,
(16,3) --> 83,
(16,4) --> 96,
(16,5) --> 106,
(16,6) --> 94,
(16,7) --> 15,
(16,8) --> 20,
(16,9) --> 17,
(16,10) --> 13,
(16,11) --> 12,
(16,12) --> 13,
(16,13) --> 4,
(16,14) --> 23,
(16,15) --> 6,
(16,16) --> 0,
(16,17) --> 16,
(16,18) --> 35,
(16,19) --> 56,
(16,20) --> 61,
(16,21) --> 48,
(16,22) --> 69,
(16,23) --> 34,
(16,24) --> 101,
(16,25) --> 100,
(16,26) --> 78,
(16,27) --> 101,
(16,28) --> 84,
(16,29) --> 95,
(17,0) --> 49,
(17,1) --> 111,
(17,2) --> 104,
(17,3) --> 91,
(17,4) --> 103,
(17,5) --> 113,
(17,6) --> 103,
(17,7) --> 17,
(17,8) --> 11,
(17,9) --> 4,
(17,10) --> 16,
(17,11) --> 13,
(17,12) --> 11,
(17,13) --> 14,
(17,14) --> 13,
(17,15) --> 17,
(17,16) --> 16,
(17,17) --> 0,
(17,18) --> 39,
(17,19) --> 64,
(17,20) --> 68,
(17,21) --> 45,
(17,22) --> 75,
(17,23) --> 38,
(17,24) --> 111,
(17,25) --> 111,
(17,26) --> 90,
(17,27) --> 113,
(17,28) --> 98,
(17,29) --> 105,
(18,0) --> 9,
(18,1) --> 72,
(18,2) --> 65,
(18,3) --> 52,
(18,4) --> 64,
(18,5) --> 73,
(18,6) --> 65,
(18,7) --> 49,
(18,8) --> 30,
(18,9) --> 36,
(18,10) --> 24,
(18,11) --> 27,
(18,12) --> 28,
(18,13) --> 37,
(18,14) --> 31,
(18,15) --> 28,
(18,16) --> 35,
(18,17) --> 39,
(18,18) --> 0,
(18,19) --> 25,
(18,20) --> 28,
(18,21) --> 21,
(18,22) --> 36,
(18,23) --> 2,
(18,24) --> 73,
(18,25) --> 73,
(18,26) --> 55,
(18,27) --> 77,
(18,28) --> 67,
(18,29) --> 68,
(19,0) --> 16,
(19,1) --> 47,
(19,2) --> 43,
(19,3) --> 27,
(19,4) --> 40,
(19,5) --> 49,
(19,6) --> 40,
(19,7) --> 72,
(19,8) --> 55,
(19,9) --> 61,
(19,10) --> 48,
(19,11) --> 52,
(19,12) --> 53,
(19,13) --> 60,
(19,14) --> 56,
(19,15) --> 51,
(19,16) --> 56,
(19,17) --> 64,
(19,18) --> 25,
(19,19) --> 0,
(19,20) --> 6,
(19,21) --> 36,
(19,22) --> 14,
(19,23) --> 27,
(19,24) --> 48,
(19,25) --> 48,
(19,26) --> 33,
(19,27) --> 54,
(19,28) --> 48,
(19,29) --> 43,
(20,0) --> 19,
(20,1) --> 44,
(20,2) --> 38,
(20,3) --> 23,
(20,4) --> 36,
(20,5) --> 45,
(20,6) --> 37,
(20,7) --> 76,
(20,8) --> 58,
(20,9) --> 64,
(20,10) --> 52,
(20,11) --> 56,
(20,12) --> 57,
(20,13) --> 64,
(20,14) --> 60,
(20,15) --> 55,
(20,16) --> 61,
(20,17) --> 68,
(20,18) --> 28,
(20,19) --> 6,
(20,20) --> 0,
(20,21) --> 36,
(20,22) --> 9,
(20,23) --> 30,
(20,24) --> 45,
(20,25) --> 47,
(20,26) --> 34,
(20,27) --> 53,
(20,28) --> 50,
(20,29) --> 42,
(21,0) --> 23,
(21,1) --> 78,
(21,2) --> 65,
(21,3) --> 57,
(21,4) --> 68,
(21,5) --> 76,
(21,6) --> 72,
(21,7) --> 60,
(21,8) --> 34,
(21,9) --> 41,
(21,10) --> 35,
(21,11) --> 37,
(21,12) --> 37,
(21,13) --> 49,
(21,14) --> 33,
(21,15) --> 42,
(21,16) --> 48,
(21,17) --> 45,
(21,18) --> 21,
(21,19) --> 36,
(21,20) --> 36,
(21,21) --> 0,
(21,22) --> 39,
(21,23) --> 19,
(21,24) --> 81,
(21,25) --> 82,
(21,26) --> 68,
(21,27) --> 89,
(21,28) --> 83,
(21,29) --> 78,
(22,0) --> 26,
(22,1) --> 39,
(22,2) --> 30,
(22,3) --> 18,
(22,4) --> 30,
(22,5) --> 38,
(22,6) --> 33,
(22,7) --> 84,
(22,8) --> 65,
(22,9) --> 71,
(22,10) --> 60,
(22,11) --> 63,
(22,12) --> 64,
(22,13) --> 72,
(22,14) --> 66,
(22,15) --> 63,
(22,16) --> 69,
(22,17) --> 75,
(22,18) --> 36,
(22,19) --> 14,
(22,20) --> 9,
(22,21) --> 39,
(22,22) --> 0,
(22,23) --> 37,
(22,24) --> 42,
(22,25) --> 44,
(22,26) --> 36,
(22,27) --> 53,
(22,28) --> 53,
(22,29) --> 40,
(23,0) --> 11,
(23,1) --> 74,
(23,2) --> 67,
(23,3) --> 53,
(23,4) --> 66,
(23,5) --> 75,
(23,6) --> 67,
(23,7) --> 48,
(23,8) --> 28,
(23,9) --> 34,
(23,10) --> 23,
(23,11) --> 26,
(23,12) --> 27,
(23,13) --> 36,
(23,14) --> 30,
(23,15) --> 28,
(23,16) --> 34,
(23,17) --> 38,
(23,18) --> 2,
(23,19) --> 27,
(23,20) --> 30,
(23,21) --> 19,
(23,22) --> 37,
(23,23) --> 0,
(23,24) --> 75,
(23,25) --> 75,
(23,26) --> 57,
(23,27) --> 79,
(23,28) --> 69,
(23,29) --> 70,
(24,0) --> 64,
(24,1) --> 8,
(24,2) --> 31,
(24,3) --> 24,
(24,4) --> 18,
(24,5) --> 21,
(24,6) --> 9,
(24,7) --> 116,
(24,8) --> 103,
(24,9) --> 108,
(24,10) --> 95,
(24,11) --> 98,
(24,12) --> 100,
(24,13) --> 105,
(24,14) --> 104,
(24,15) --> 96,
(24,16) --> 101,
(24,17) --> 111,
(24,18) --> 73,
(24,19) --> 48,
(24,20) --> 45,
(24,21) --> 81,
(24,22) --> 42,
(24,23) --> 75,
(24,24) --> 0,
(24,25) --> 6,
(24,26) --> 27,
(24,27) --> 19,
(24,28) --> 37,
(24,29) --> 9,
(25,0) --> 64,
(25,1) --> 13,
(25,2) --> 36,
(25,3) --> 26,
(25,4) --> 23,
(25,5) --> 27,
(25,6) --> 12,
(25,7) --> 115,
(25,8) --> 103,
(25,9) --> 108,
(25,10) --> 94,
(25,11) --> 98,
(25,12) --> 99,
(25,13) --> 104,
(25,14) --> 104,
(25,15) --> 95,
(25,16) --> 100,
(25,17) --> 111,
(25,18) --> 73,
(25,19) --> 48,
(25,20) --> 47,
(25,21) --> 82,
(25,22) --> 44,
(25,23) --> 75,
(25,24) --> 6,
(25,25) --> 0,
(25,26) --> 24,
(25,27) --> 13,
(25,28) --> 32,
(25,29) --> 5,
(26,0) --> 47,
(26,1) --> 32,
(26,2) --> 46,
(26,3) --> 26,
(26,4) --> 34,
(26,5) --> 43,
(26,6) --> 25,
(26,7) --> 93,
(26,8) --> 83,
(26,9) --> 87,
(26,10) --> 74,
(26,11) --> 77,
(26,12) --> 79,
(26,13) --> 81,
(26,14) --> 85,
(26,15) --> 74,
(26,16) --> 78,
(26,17) --> 90,
(26,18) --> 55,
(26,19) --> 33,
(26,20) --> 34,
(26,21) --> 68,
(26,22) --> 36,
(26,23) --> 57,
(26,24) --> 27,
(26,25) --> 24,
(26,26) --> 0,
(26,27) --> 23,
(26,28) --> 17,
(26,29) --> 19,
(27,0) --> 69,
(27,1) --> 26,
(27,2) --> 49,
(27,3) --> 36,
(27,4) --> 36,
(27,5) --> 40,
(27,6) --> 24,
(27,7) --> 115,
(27,8) --> 106,
(27,9) --> 110,
(27,10) --> 97,
(27,11) --> 100,
(27,12) --> 102,
(27,13) --> 104,
(27,14) --> 108,
(27,15) --> 97,
(27,16) --> 101,
(27,17) --> 113,
(27,18) --> 77,
(27,19) --> 54,
(27,20) --> 53,
(27,21) --> 89,
(27,22) --> 53,
(27,23) --> 79,
(27,24) --> 19,
(27,25) --> 13,
(27,26) --> 23,
(27,27) --> 0,
(27,28) --> 23,
(27,29) --> 14,
(28,0) --> 60,
(28,1) --> 44,
(28,2) --> 62,
(28,3) --> 43,
(28,4) --> 49,
(28,5) --> 57,
(28,6) --> 38,
(28,7) --> 98,
(28,8) --> 92,
(28,9) --> 96,
(28,10) --> 82,
(28,11) --> 86,
(28,12) --> 87,
(28,13) --> 87,
(28,14) --> 95,
(28,15) --> 81,
(28,16) --> 84,
(28,17) --> 98,
(28,18) --> 67,
(28,19) --> 48,
(28,20) --> 50,
(28,21) --> 83,
(28,22) --> 53,
(28,23) --> 69,
(28,24) --> 37,
(28,25) --> 32,
(28,26) --> 17,
(28,27) --> 23,
(28,28) --> 0,
(28,29) --> 29,
(29,0) --> 59,
(29,1) --> 15,
(29,2) --> 36,
(29,3) --> 23,
(29,4) --> 22,
(29,5) --> 28,
(29,6) --> 10,
(29,7) --> 110,
(29,8) --> 97,
(29,9) --> 102,
(29,10) --> 89,
(29,11) --> 93,
(29,12) --> 94,
(29,13) --> 98,
(29,14) --> 99,
(29,15) --> 90,
(29,16) --> 95,
(29,17) --> 105,
(29,18) --> 68,
(29,19) --> 43,
(29,20) --> 42,
(29,21) --> 78,
(29,22) --> 40,
(29,23) --> 70,
(29,24) --> 9,
(29,25) --> 5,
(29,26) --> 19,
(29,27) --> 14,
(29,28) --> 29,
(29,29) --> 0)
letting orderWeights be function (
1 --> 300
,
2 --> 3100
,
3 --> 125
,
4 --> 100
,
5 --> 200
,
6 --> 150
,
7 --> 150
,
8 --> 450
,
9 --> 300
,
10 --> 100
,
11 --> 950
,
12 --> 125
,
13 --> 150
,
14 --> 150
,
15 --> 550
,
16 --> 150
,
17 --> 100
,
18 --> 150
,
19 --> 400
,
20 --> 300
,
21 --> 1500
,
22 --> 100
,
23 --> 300
,
24 --> 500
,
25 --> 800
,
26 --> 300
,
27 --> 100
,
28 --> 150
,
29 --> 1000
)
letting vehicleCapacity be 4500
